12 66
1 2 3
1 3 3
1 4 4
1 5 4
1 6 4
1 7 3
1 8 3
1 9 3
1 10 2
1 11 4
1 12 2
2 3 2
2 4 2
2 5 2
2 6 3
2 7 1
2 8 2
2 9 2
2 10 5
2 11 4
2 12 5
3 4 1
3 5 2
3 6 1
3 7 3
3 8 5
3 9 2
3 10 1
3 11 1
3 12 3
4 5 4
4 6 2
4 7 5
4 8 5
4 9 1
4 10 5
4 11 2
4 12 5
5 6 5
5 7 1
5 8 4
5 9 5
5 10 2
5 11 3
5 12 2
6 7 2
6 8 2
6 9 2
6 10 4
6 11 5
6 12 3
7 8 5
7 9 5
7 10 3
7 11 5
7 12 4
8 9 4
8 10 2
8 11 2
8 12 1
9 10 2
9 11 2
9 12 3
10 11 3
10 12 5
11 12 2
